     Program PWSCF v.6.7MaX starts on 18Oct2024 at 16:11:58

     R & G space division:  proc/nbgrp/npool/nimage =      20
     Reading input from scf.in

     Current dimensions of program PWSCF are:
     Max number of different atomic species (ntypx) = 10
     Max number of k-points (npk) =  40000
     Max angular momentum in pseudopotentials (lmaxx) =  3
     file Oh.pbe-n-kjpaw_psl.1.0.0.UPF: wavefunction(s)  2S renormalized
     file O.pbe-n-kjpaw_psl.1.0.0.UPF: wavefunction(s)  2S 2P renormalized
     file Mn.pbe-spn-kjpaw_psl.0.3.1.UPF: wavefunction(s)  3P 3D renormalized
     file Cr.pbe-spn-kjpaw_psl.1.0.0.UPF: wavefunction(s)  3S 3P 3D renormalized
     file La.pbe-spfn-kjpaw_psl.1.0.0.UPF: wavefunction(s)  5S 5D 4F renormalized
     file Ca.pbe-spn-kjpaw_psl.1.0.0.UPF: wavefunction(s)  3S renormalized

     Subspace diagonalization in iterative solution of the eigenvalue problem:
     a serial algorithm will be used

     bravais-lattice index     =            8
     lattice parameter (alat)  =      10.3992  a.u.
     unit-cell volume          =    1559.4122 (a.u.)^3
     number of atoms/cell      =           20
     number of atomic types    =            6
     number of electrons       =       173.00
     number of Kohn-Sham states=          104
     kinetic-energy cutoff     =     120.0000  Ry
     charge density cutoff     =     800.0000  Ry
     scf convergence threshold =      1.0E-06
     mixing beta               =       0.4000
     number of iterations used =            8  plain     mixing
     Exchange-correlation= SLA  PW   PBX  PBC
                           (   1   4   3   4   0   0   0)

     celldm(1)=  10.399163  celldm(2)=   1.389424  celldm(3)=   0.998001
     celldm(4)=   0.000000  celldm(5)=   0.000000  celldm(6)=   0.000000

     crystal axes: (cart. coord. in units of alat)
               a(1) = (   1.000000   0.000000   0.000000 )
               a(2) = (   0.000000   1.389424   0.000000 )
               a(3) = (   0.000000   0.000000   0.998001 )

     reciprocal axes: (cart. coord. in units 2 pi/alat)
               b(1) = (  1.000000  0.000000  0.000000 )
               b(2) = (  0.000000  0.719723  0.000000 )
               b(3) = (  0.000000  0.000000  1.002003 )

     PseudoPot. # 1 for O  read from file:
     ./Oh.pbe-n-kjpaw_psl.1.0.0.UPF
     MD5 check sum: 771e5e8de0816322a0a57b1c807f10d0
     Pseudo is Projector augmented-wave + core cor, Zval =  7.0
     Generated using &quot;atomic&quot; code by A. Dal Corso  v.6.4.1
     Shape of augmentation charge: PSQ
     Using radial grid of 1095 points,  4 beta functions with:
                l(1) =   0
                l(2) =   0
                l(3) =   1
                l(4) =   1
     Q(r) pseudized with 0 coefficients

     PseudoPot. # 2 for O  read from file:
     ./O.pbe-n-kjpaw_psl.1.0.0.UPF
     MD5 check sum: d376a1e59248a575047f657679e84f03
     Pseudo is Projector augmented-wave + core cor, Zval =  6.0
     Generated using 'atomic' code by A. Dal Corso  v.6.7MaX
     Shape of augmentation charge: PSQ
     Using radial grid of 1095 points,  4 beta functions with:
                l(1) =   0
                l(2) =   0
                l(3) =   1
                l(4) =   1
     Q(r) pseudized with 0 coefficients

     PseudoPot. # 3 for Mn read from file:
     ./Mn.pbe-spn-kjpaw_psl.0.3.1.UPF
     MD5 check sum: ba19e6d7ccbc12830efad05ba8577d9c
     Pseudo is Projector augmented-wave + core cor, Zval = 15.0
     Generated using &quot;atomic&quot; code by A. Dal Corso  v.6.2.2
     Shape of augmentation charge: PSQ
     Using radial grid of 1187 points,  6 beta functions with:
                l(1) =   0
                l(2) =   0
                l(3) =   1
                l(4) =   1
                l(5) =   2
                l(6) =   2
     Q(r) pseudized with 0 coefficients

     PseudoPot. # 4 for Cr read from file:
     ./Cr.pbe-spn-kjpaw_psl.1.0.0.UPF
     MD5 check sum: 198f1a2427a48552563eee314eba32ba
     Pseudo is Projector augmented-wave + core cor, Zval = 14.0
     Generated using &quot;atomic&quot; code by A. Dal Corso  v.6.3
     Shape of augmentation charge: PSQ
     Using radial grid of 1183 points,  6 beta functions with:
                l(1) =   0
                l(2) =   0
                l(3) =   1
                l(4) =   1
                l(5) =   2
                l(6) =   2
     Q(r) pseudized with 0 coefficients

     PseudoPot. # 5 for La read from file:
     ./La.pbe-spfn-kjpaw_psl.1.0.0.UPF
     MD5 check sum: 19c120b9b226ebe8b71b17784232f739
     Pseudo is Projector augmented-wave + core cor, Zval = 11.0
     Generated using &quot;atomic&quot; code by A. Dal Corso  v.6.2.2
     Shape of augmentation charge: PSQ
     Using radial grid of 1253 points,  8 beta functions with:
                l(1) =   0
                l(2) =   0
                l(3) =   1
                l(4) =   1
                l(5) =   2
                l(6) =   2
                l(7) =   3
                l(8) =   3
     Q(r) pseudized with 0 coefficients

     PseudoPot. # 6 for Ca read from file:
     ./Ca.pbe-spn-kjpaw_psl.1.0.0.UPF
     MD5 check sum: 1e11ab70c77b02a7d7d676f41d47b751
     Pseudo is Projector augmented-wave + core cor, Zval = 10.0
     Generated using &quot;atomic&quot; code by A. Dal Corso  v.6.4.1
     Shape of augmentation charge: PSQ
     Using radial grid of 1169 points,  6 beta functions with:
                l(1) =   0
                l(2) =   0
                l(3) =   1
                l(4) =   1
                l(5) =   2
                l(6) =   2
     Q(r) pseudized with 0 coefficients

     atomic species   valence    mass     pseudopotential
        Oh             7.00    15.99940     O ( 1.00)
        O              6.00    15.99940     O ( 1.00)
        Mn            15.00    54.93805     Mn( 1.00)
        Cr            14.00    51.99610     Cr( 1.00)
        La            11.00   138.90550     La( 1.00)
        Ca            10.00    40.07800     Ca( 1.00)

     Starting magnetic structure
     atomic species   magnetization
        Oh           0.000
        O            0.000
        Mn           0.100
        Cr           0.100
        La           0.000
        Ca           0.000

     Simplified LDA+U calculation (l_max = 2) with parameters (eV):
     atomic species    L          U    alpha       J0     beta
        Mn             2     4.0000   0.0000   0.2000   0.0000
        Cr             2     4.0000   0.0000   0.3000   0.0000

     No symmetry found

   Cartesian axes

     site n.     atom                  positions (alat units)
         1           Oh  tau(   1) = (   0.2198861   0.0524630   0.2809086  )
         2           O   tau(   2) = (   0.2764165   1.3285364   0.7717701  )
         3           O   tau(   3) = (   0.7861150   0.7506598   0.7112868  )
         4           O   tau(   4) = (   0.7108526   0.6334608   0.2102161  )
         5           O   tau(   5) = (   0.7797719   1.3332902   0.7191236  )
         6           O   tau(   6) = (   0.7189495   0.0611292   0.2198621  )
         7           O   tau(   7) = (   0.2100373   0.6446956   0.2891499  )
         8           O   tau(   8) = (   0.2812659   0.7563774   0.7794318  )
         9           O   tau(   9) = (   0.5197896   0.3428308   0.5888881  )
        10           O   tau(  10) = (   0.9848484   1.0467943   0.0721257  )
        11           O   tau(  11) = (   0.4913382   1.0464825   0.4233307  )
        12           O   tau(  12) = (   0.0320883   0.3426947   0.9201148  )
        13           Mn  tau(  13) = (   0.0002317   0.0051027  -0.0002726  )
        14           Mn  tau(  14) = (   0.5001425   0.0057805   0.4993062  )
        15           Cr  tau(  15) = (  -0.0006662   0.6894917  -0.0004508  )
        16           Cr  tau(  16) = (   0.4997185   0.6885995   0.4985406  )
        17           La  tau(  17) = (   0.0321494   1.0398855   0.5039246  )
        18           La  tau(  18) = (   0.5298959   1.0386377   0.9907921  )
        19           La  tau(  19) = (   0.9673120   0.3496951   0.4921363  )
        20           Ca  tau(  20) = (   0.4598570   0.3482077   0.0118254  )

     number of k points=    36  Gaussian smearing, width (Ry)=  0.0100
                       cart. coord. in units 2pi/alat
        k(    1) = (   0.0000000   0.0000000   0.0000000), wk =   0.0156250
        k(    2) = (   0.0000000   0.0000000   0.2505007), wk =   0.0312500
        k(    3) = (   0.0000000   0.0000000  -0.5010015), wk =   0.0156250
        k(    4) = (   0.0000000   0.1799307   0.0000000), wk =   0.0312500
        k(    5) = (   0.0000000   0.1799307   0.2505007), wk =   0.0312500
        k(    6) = (   0.0000000   0.1799307  -0.5010015), wk =   0.0312500
        k(    7) = (   0.0000000  -0.3598614   0.0000000), wk =   0.0156250
        k(    8) = (   0.0000000  -0.3598614   0.2505007), wk =   0.0312500
        k(    9) = (   0.0000000  -0.3598614  -0.5010015), wk =   0.0156250
        k(   10) = (   0.2500000   0.0000000   0.0000000), wk =   0.0312500
        k(   11) = (   0.2500000   0.0000000   0.2505007), wk =   0.0312500
        k(   12) = (   0.2500000   0.0000000  -0.5010015), wk =   0.0312500
        k(   13) = (   0.2500000   0.1799307   0.0000000), wk =   0.0312500
        k(   14) = (   0.2500000   0.1799307   0.2505007), wk =   0.0312500
        k(   15) = (   0.2500000   0.1799307  -0.5010015), wk =   0.0312500
        k(   16) = (   0.2500000  -0.3598614   0.0000000), wk =   0.0312500
        k(   17) = (   0.2500000  -0.3598614   0.2505007), wk =   0.0312500
        k(   18) = (   0.2500000  -0.3598614  -0.5010015), wk =   0.0312500
        k(   19) = (  -0.5000000   0.0000000   0.0000000), wk =   0.0156250
        k(   20) = (  -0.5000000   0.0000000   0.2505007), wk =   0.0312500
        k(   21) = (  -0.5000000   0.0000000  -0.5010015), wk =   0.0156250
        k(   22) = (  -0.5000000   0.1799307   0.0000000), wk =   0.0312500
        k(   23) = (  -0.5000000   0.1799307   0.2505007), wk =   0.0312500
        k(   24) = (  -0.5000000   0.1799307  -0.5010015), wk =   0.0312500
        k(   25) = (  -0.5000000  -0.3598614   0.0000000), wk =   0.0156250
        k(   26) = (  -0.5000000  -0.3598614   0.2505007), wk =   0.0312500
        k(   27) = (  -0.5000000  -0.3598614  -0.5010015), wk =   0.0156250
        k(   28) = (   0.0000000  -0.1799307   0.2505007), wk =   0.0312500
        k(   29) = (  -0.2500000   0.0000000   0.2505007), wk =   0.0312500
        k(   30) = (  -0.2500000   0.1799307   0.0000000), wk =   0.0312500
        k(   31) = (  -0.2500000  -0.1799307   0.2505007), wk =   0.0312500
        k(   32) = (  -0.2500000   0.1799307  -0.2505007), wk =   0.0312500
        k(   33) = (   0.2500000  -0.1799307  -0.2505007), wk =   0.0312500
        k(   34) = (  -0.2500000   0.1799307   0.5010015), wk =   0.0312500
        k(   35) = (  -0.2500000   0.3598614   0.2505007), wk =   0.0312500
        k(   36) = (   0.5000000  -0.1799307   0.2505007), wk =   0.0312500

     Check: negative core charge=   -0.000001
     Generating pointlists ...
     new r_m :   0.1478 (alat units)  1.5372 (a.u.) for type    1
[...]
  0.000  1.000  0.000  0.000  0.000
  0.000  0.000  1.000  0.000  0.000
  0.000  0.000  0.000  1.000  0.000
  0.000  0.000  0.000  0.000  1.000
    occupations:
  0.000  0.000  0.000  0.000  0.000
  0.000  0.000  0.000  0.000  0.000
  0.000  0.000  0.000  0.000  0.000
  0.000  0.000  0.000  0.000  0.000
  0.000  0.000  0.000  0.000  0.000
atomic mag. moment =   5.00000
atom   16   Tr[ns(na)] (up, down, total) =   5.00000  0.00000  5.00000
   spin  1
    eigenvalues:
  1.000  1.000  1.000  1.000  1.000
    eigenvectors:
  1.000  0.000  0.000  0.000  0.000
  0.000  1.000  0.000  0.000  0.000
  0.000  0.000  1.000  0.000  0.000
  0.000  0.000  0.000  1.000  0.000
  0.000  0.000  0.000  0.000  1.000
    occupations:
  1.000  0.000  0.000  0.000  0.000
  0.000  1.000  0.000  0.000  0.000
  0.000  0.000  1.000  0.000  0.000
  0.000  0.000  0.000  1.000  0.000
  0.000  0.000  0.000  0.000  1.000
   spin  2
    eigenvalues:
  0.000  0.000  0.000  0.000  0.000
    eigenvectors:
  1.000  0.000  0.000  0.000  0.000
  0.000  1.000  0.000  0.000  0.000
  0.000  0.000  1.000  0.000  0.000
  0.000  0.000  0.000  1.000  0.000
  0.000  0.000  0.000  0.000  1.000
    occupations:
  0.000  0.000  0.000  0.000  0.000
  0.000  0.000  0.000  0.000  0.000
  0.000  0.000  0.000  0.000  0.000
  0.000  0.000  0.000  0.000  0.000
  0.000  0.000  0.000  0.000  0.000
atomic mag. moment =   5.00000
N of occupied +U levels =   20.000000
 --- exit write_ns ---
 Atomic wfc used for LDA+U Projector are NOT orthogonalized
     Starting wfcs are  156 randomized atomic wfcs
     Checking if some PAW data can be deallocated...

     Self-consistent Calculation

     iteration #  1     ecut=   120.00 Ry     beta= 0.40
     Davidson diagonalization with overlap
     ethr =  1.00E-02,  avg # of iterations =  2.4
 --- enter write_ns ---
 LDA+U parameters:
U( 3)     =  4.00000000
J0( 3)     =  0.20000000
U( 4)     =  4.00000000
J0( 4)     =  0.30000000
atom   13   Tr[ns(na)] (up, down, total) =   4.09442  0.59041  4.68483
   spin  1
    eigenvalues:
  0.485  0.800  0.921  0.938  0.950
    eigenvectors:
  0.131  0.166  0.148  0.549  0.006
  0.092  0.783  0.034  0.048  0.043
  0.099  0.005  0.542  0.305  0.049
  0.638  0.026  0.232  0.062  0.043
  0.041  0.021  0.044  0.036  0.859
    occupations:
  0.853 -0.001  0.060 -0.136  0.025
 -0.001  0.788  0.037 -0.088  0.047
  0.060  0.037  0.884  0.110 -0.022
 -0.136 -0.088  0.110  0.643  0.074
  0.025  0.047 -0.022  0.074  0.927
   spin  2
    eigenvalues:
  0.071  0.080  0.096  0.158  0.184
    eigenvectors:
  0.000  0.441  0.358  0.011  0.190
  0.014  0.010  0.005  0.970  0.000
  0.008  0.541  0.346  0.002  0.103
  0.055  0.005  0.257  0.001  0.682
  0.922  0.003  0.034  0.016  0.026
    occupations:
  0.107 -0.008 -0.020  0.032 -0.004
 -0.008  0.156 -0.004  0.000 -0.010
 -0.020 -0.004  0.097 -0.023  0.003
  0.032  0.000 -0.023  0.155 -0.018
 -0.004 -0.010  0.003 -0.018  0.076
atomic mag. moment =   3.50401
atom   14   Tr[ns(na)] (up, down, total) =   4.08598  0.57852  4.66450
   spin  1
    eigenvalues:
  0.460  0.811  0.922  0.934  0.959
    eigenvectors:
  0.226  0.008  0.082  0.683  0.001
  0.108  0.730  0.013  0.101  0.048
  0.133  0.000  0.004  0.067  0.796
  0.531  0.205  0.046  0.080  0.139
  0.002  0.057  0.855  0.070  0.017
    occupations:
  0.825 -0.084 -0.082 -0.159 -0.010
 -0.084  0.794 -0.060 -0.064 -0.031
 -0.082 -0.060  0.891 -0.135 -0.004
 -0.159 -0.064 -0.135  0.660 -0.006
 -0.010 -0.031 -0.004 -0.006  0.916
   spin  2
    eigenvalues:
  0.070  0.073  0.090  0.161  0.185
    eigenvectors:
  0.002  0.012  0.781  0.007  0.198
  0.032  0.033  0.021  0.894  0.020
  0.819  0.037  0.014  0.004  0.126
  0.116  0.005  0.169  0.055  0.656
  0.032  0.913  0.016  0.040  0.000
    occupations:
  0.109  0.012  0.016  0.032 -0.001
  0.012  0.154  0.012 -0.006  0.017
  0.016  0.012  0.085  0.033  0.000
  0.032 -0.006  0.033  0.154 -0.004
 -0.001  0.017  0.000 -0.004  0.077
atomic mag. moment =   3.50746
atom   15   Tr[ns(na)] (up, down, total) =   1.39591  0.56985  1.96576
   spin  1
    eigenvalues:
  0.176  0.267  0.272  0.287  0.394
    eigenvectors:
  0.071  0.216  0.144  0.567  0.002
  0.057  0.110  0.575  0.246  0.011
  0.008  0.128  0.023  0.052  0.788
  0.007  0.545  0.255  0.021  0.171
  0.856  0.000  0.003  0.113  0.027
    occupations:
  0.273  0.001 -0.001 -0.003  0.028
  0.001  0.271  0.008 -0.004  0.026
 -0.001  0.008  0.368 -0.045  0.025
 -0.003 -0.004 -0.045  0.290 -0.017
  0.028  0.026  0.025 -0.017  0.195
   spin  2
    eigenvalues:
  0.067  0.070  0.072  0.178  0.183
    eigenvectors:
  0.088  0.254  0.387  0.226  0.046
  0.095  0.013  0.018  0.005  0.869
  0.077  0.716  0.077  0.129  0.000
  0.031  0.010  0.294  0.631  0.033
  0.709  0.007  0.224  0.009  0.052
    occupations:
  0.100 -0.026  0.019  0.036  0.001
 -0.026  0.169 -0.003  0.013  0.024
  0.019 -0.003  0.084  0.031  0.005
  0.036  0.013  0.031  0.142  0.012
  0.001  0.024  0.005  0.012  0.075
atomic mag. moment =   0.82606
atom   16   Tr[ns(na)] (up, down, total) =   1.40683  0.57247  1.97930
   spin  1
    eigenvalues:
  0.203  0.231  0.270  0.279  0.424
    eigenvectors:
  0.142  0.297  0.288  0.000  0.273
  0.051  0.003  0.024  0.920  0.002
  0.232  0.631  0.096  0.014  0.027
  0.191  0.007  0.591  0.058  0.153
  0.385  0.061  0.001  0.008  0.545
    occupations:
  0.291  0.000 -0.018 -0.019  0.080
  0.000  0.275 -0.009 -0.006 -0.015
 -0.018 -0.009  0.234 -0.001 -0.031
 -0.019 -0.006 -0.001  0.281 -0.063
  0.080 -0.015 -0.031 -0.063  0.326
   spin  2
    eigenvalues:
  0.068  0.069  0.074  0.178  0.183
    eigenvectors:
  0.390  0.006  0.365  0.174  0.065
  0.072  0.049  0.004  0.001  0.873
  0.231  0.612  0.013  0.140  0.005
  0.004  0.135  0.169  0.681  0.011
  0.303  0.199  0.449  0.004  0.046
    occupations:
  0.097  0.026 -0.020  0.033 -0.001
  0.026  0.169 -0.006 -0.014 -0.023
 -0.020 -0.006  0.085 -0.033 -0.001
  0.033 -0.014 -0.033  0.145  0.007
 -0.001 -0.023 -0.001  0.007  0.077
atomic mag. moment =   0.83436
N of occupied +U levels =   13.294396
 --- exit write_ns ---

     total energy              =   -3079.10626276 Ry
     estimated scf accuracy    <      27.29968974 Ry

     total magnetization       =     8.54 Bohr mag/cell
     absolute magnetization    =    10.19 Bohr mag/cell

     iteration #  2     ecut=   120.00 Ry     beta= 0.40
     Davidson diagonalization with overlap
     ethr =  1.00E-02,  avg # of iterations =  5.7

[...]

     iteration #  9     ecut=   120.00 Ry     beta= 0.40
     Davidson diagonalization with overlap
     c_bands:  4 eigenvalues not converged
     c_bands:  2 eigenvalues not converged
     c_bands:  1 eigenvalues not converged
     c_bands:  4 eigenvalues not converged
     c_bands:  2 eigenvalues not converged
     c_bands:  1 eigenvalues not converged
     c_bands:  2 eigenvalues not converged
     c_bands:  2 eigenvalues not converged
     c_bands:  2 eigenvalues not converged
     c_bands:  1 eigenvalues not converged
     c_bands:  1 eigenvalues not converged
     ethr =  1.19E-04,  avg # of iterations = 12.1

[...]

     iteration # 10     ecut=   120.00 Ry     beta= 0.40
     Davidson diagonalization with overlap
     ethr =  8.84E-05,  avg # of iterations =  1.7

[...]

     total energy              =   -3090.21903898 Ry
     estimated scf accuracy    <       0.00000276 Ry

[...]

     iteration # 19     ecut=   120.00 Ry     beta= 0.40
     Davidson diagonalization with overlap
     c_bands:  1 eigenvalues not converged
     ethr =  1.60E-09,  avg # of iterations =  4.8

     Magnetic moment per site:
     atom:    1    charge:    6.5115    magn:    0.0368    constr:    0.0000
     atom:    2    charge:    5.2858    magn:   -0.0576    constr:    0.0000
     atom:    3    charge:    5.3087    magn:   -0.0320    constr:    0.0000
     atom:    4    charge:    5.2866    magn:   -0.0519    constr:    0.0000
     atom:    5    charge:    5.2717    magn:   -0.1137    constr:    0.0000
     atom:    6    charge:    5.2737    magn:   -0.0484    constr:    0.0000
     atom:    7    charge:    5.3093    magn:   -0.0286    constr:    0.0000
     atom:    8    charge:    5.3034    magn:   -0.0471    constr:    0.0000
     atom:    9    charge:    5.2941    magn:   -0.0655    constr:    0.0000
     atom:   10    charge:    5.3029    magn:   -0.0542    constr:    0.0000
     atom:   11    charge:    5.2991    magn:   -0.0549    constr:    0.0000
     atom:   12    charge:    5.3131    magn:   -0.0560    constr:    0.0000
     atom:   13    charge:   11.7742    magn:    3.2743    constr:    0.0000
     atom:   14    charge:   11.7722    magn:    3.2509    constr:    0.0000
     atom:   15    charge:   10.8040    magn:    2.3945    constr:    0.0000
     atom:   16    charge:   10.8028    magn:    2.3899    constr:    0.0000
     atom:   17    charge:    6.2003    magn:    0.0100    constr:    0.0000
     atom:   18    charge:    6.1943    magn:    0.0099    constr:    0.0000
     atom:   19    charge:    6.1922    magn:    0.0117    constr:    0.0000
     atom:   20    charge:    7.5836    magn:    0.0054    constr:    0.0000

     End of self-consistent calculation
 --- enter write_ns ---
 LDA+U parameters:
U( 3)     =  4.00000000
J0( 3)     =  0.20000000
U( 4)     =  4.00000000
J0( 4)     =  0.30000000
atom   13   Tr[ns(na)] (up, down, total) =   4.57836  1.02815  5.60651
   spin  1
    eigenvalues:
  0.715  0.873  0.995  0.997  0.998
    eigenvectors:
  0.178  0.088  0.066  0.410  0.258
  0.030  0.849  0.015  0.000  0.106
  0.094  0.010  0.641  0.072  0.183
  0.687  0.001  0.040  0.096  0.176
  0.011  0.052  0.238  0.423  0.277
    occupations:
  0.936  0.013  0.040 -0.100  0.004
  0.013  0.884  0.003 -0.037  0.031
  0.040  0.003  0.968  0.072 -0.007
 -0.100 -0.037  0.072  0.803  0.023
  0.004  0.031 -0.007  0.023  0.987
   spin  2
    eigenvalues:
  0.110  0.132  0.143  0.278  0.366
    eigenvectors:
  0.607  0.153  0.000  0.083  0.156
  0.055  0.003  0.016  0.859  0.066
  0.043  0.599  0.255  0.012  0.091
  0.240  0.001  0.071  0.019  0.669
  0.055  0.243  0.658  0.027  0.017
    occupations:
  0.167 -0.019 -0.029  0.090 -0.009
 -0.019  0.272 -0.002  0.034 -0.030
 -0.029 -0.002  0.157 -0.061  0.012
  0.090  0.034 -0.061  0.287 -0.017
 -0.009 -0.030  0.012 -0.017  0.146
atomic mag. moment =   3.55021
atom   14   Tr[ns(na)] (up, down, total) =   4.56728  1.04705  5.61433
   spin  1
    eigenvalues:
  0.716  0.861  0.996  0.997  0.997
    eigenvectors:
  0.227  0.009  0.029  0.296  0.439
  0.057  0.823  0.002  0.003  0.115
  0.111  0.004  0.830  0.032  0.023
  0.604  0.100  0.087  0.068  0.141
  0.000  0.065  0.052  0.600  0.283
    occupations:
  0.932 -0.044 -0.044 -0.100 -0.005
 -0.044  0.869 -0.015 -0.013 -0.032
 -0.044 -0.015  0.964 -0.075  0.001
 -0.100 -0.013 -0.075  0.814  0.008
 -0.005 -0.032  0.001  0.008  0.988
   spin  2
    eigenvalues:
  0.115  0.128  0.148  0.284  0.372
    eigenvectors:
  0.664  0.000  0.113  0.000  0.223
  0.060  0.004  0.012  0.814  0.110
  0.002  0.580  0.302  0.009  0.107
  0.188  0.117  0.000  0.135  0.560
  0.087  0.299  0.573  0.042  0.000
    occupations:
  0.176  0.042  0.034  0.090 -0.006
  0.042  0.281  0.012  0.007  0.029
  0.034  0.012  0.162  0.065  0.006
  0.090  0.007  0.065  0.283 -0.006
 -0.006  0.029  0.006 -0.006  0.145
atomic mag. moment =   3.52023
atom   15   Tr[ns(na)] (up, down, total) =   3.85285  1.08228  4.93513
   spin  1
    eigenvalues:
  0.460  0.472  0.958  0.975  0.989
    eigenvectors:
  0.260  0.006  0.177  0.505  0.052
  0.058  0.862  0.003  0.030  0.048
  0.057  0.004  0.386  0.421  0.131
  0.624  0.098  0.199  0.044  0.035
  0.000  0.030  0.235  0.000  0.734
    occupations:
  0.836  0.099 -0.064 -0.193 -0.000
  0.099  0.512  0.001 -0.048 -0.084
 -0.064  0.001  0.938 -0.104 -0.015
 -0.193 -0.048 -0.104  0.601 -0.023
 -0.000 -0.084 -0.015 -0.023  0.966
   spin  2
    eigenvalues:
  0.122  0.127  0.134  0.344  0.355
    eigenvectors:
  0.199  0.194  0.343  0.232  0.033
  0.087  0.004  0.008  0.006  0.896
  0.018  0.788  0.098  0.096  0.000
  0.049  0.006  0.253  0.662  0.031
  0.648  0.009  0.299  0.004  0.040
    occupations:
  0.186 -0.047  0.033  0.076  0.003
 -0.047  0.332 -0.003  0.025  0.043
  0.033 -0.003  0.149  0.054  0.007
  0.076  0.025  0.054  0.279  0.017
  0.003  0.043  0.007  0.017  0.136
atomic mag. moment =   2.77057
atom   16   Tr[ns(na)] (up, down, total) =   3.85095  1.08513  4.93608
   spin  1
    eigenvalues:
  0.462  0.472  0.954  0.972  0.991
    eigenvectors:
  0.169  0.094  0.487  0.010  0.241
  0.055  0.863  0.005  0.004  0.072
  0.064  0.007  0.097  0.711  0.121
  0.708  0.009  0.095  0.050  0.137
  0.004  0.026  0.316  0.225  0.429
    occupations:
  0.835 -0.095  0.059 -0.191 -0.001
 -0.095  0.513  0.010  0.057  0.087
  0.059  0.010  0.936  0.117  0.003
 -0.191  0.057  0.117  0.607 -0.011
 -0.001  0.087  0.003 -0.011  0.959
   spin  2
    eigenvalues:
  0.122  0.125  0.137  0.345  0.356
    eigenvectors:
  0.365  0.009  0.381  0.189  0.056
  0.070  0.027  0.002  0.002  0.899
  0.149  0.740  0.000  0.108  0.003
  0.017  0.141  0.138  0.698  0.006
  0.399  0.083  0.479  0.004  0.036
    occupations:
  0.183  0.048 -0.035  0.073  0.002
  0.048  0.333 -0.009 -0.026 -0.043
 -0.035 -0.009  0.149 -0.059 -0.001
  0.073 -0.026 -0.059  0.281  0.011
  0.002 -0.043 -0.001  0.011  0.139
atomic mag. moment =   2.76582
N of occupied +U levels =   21.092051
 --- exit write_ns ---

 ------ SPIN UP ------------

          k = 0.0000 0.0000 0.0000 ( 34611 PWs)   bands (ev):

   -69.7601 -69.7585 -60.3657 -60.3633 -38.5119 -38.5063 -38.4712 -38.4703
   -38.4213 -38.4172 -31.7205 -31.7189 -31.6835 -31.6701 -31.6538 -31.6473
   -26.5609 -18.5552 -18.3588 -18.2233 -10.2283  -7.7605  -7.7491  -7.7418
    -6.1924  -5.8823  -5.7502  -5.7279  -5.4975  -5.2599  -5.1651  -4.9683
    -4.8765  -4.8601  -4.5251  -2.5166  -2.2240  -2.1244  -2.0347  -1.9421
    -1.8199  -1.4892  -1.2271  -1.1746   3.2203   4.3210   4.6117   5.6618
     5.9244   6.1484   6.3359   6.4989   6.7268   6.8350   6.9396   6.9924
     7.1385   7.1525   7.4191   7.5595   7.6476   7.7965   8.1880   8.4106
     8.5023   8.5278   8.8878   8.9599   8.9767   9.1971   9.2959   9.5964
     9.6444   9.8346   9.9455  10.0069  10.0794  10.3322  10.3771  10.4738
    10.5440  10.7055  10.7621  10.8681  11.0507  11.1049  11.1144  11.1951
    11.2352  11.6691  11.7882  11.9550  12.3243  12.4821  13.1084  14.0751
    14.1477  15.0212  16.1769  16.2474  16.4303  16.4415  16.4675  16.4993

[...]

          k =-0.5000 0.0000 0.0000 ( 34568 PWs)   bands (ev):

[...]

 ------ SPIN DOWN ----------

[...]

          k =-0.2500 0.3599 0.2505 ( 34616 PWs)   bands (ev):

[...]

          k = 0.5000-0.1799 0.2505 ( 34620 PWs)   bands (ev):

   -65.5758 -65.5446 -57.3691 -57.3667 -34.5642 -34.5609 -34.3333 -34.2853
   -34.2292 -34.1837 -28.7983 -28.7940 -28.7447 -28.7404 -28.6858 -28.6806
   -26.5454 -18.5131 -18.2894 -18.2348 -10.0313  -7.7915  -7.7585  -7.7149
    -6.2973  -6.2032  -5.7388  -5.6037  -5.4533  -5.2986  -5.1715  -5.0043
    -4.8660  -4.8193  -4.5710  -2.1644  -1.8310  -1.8206  -1.7605  -1.7461
    -1.5584  -1.4741  -1.2043  -1.1628   4.0433   5.1054   5.1794   6.8619
     7.0842   7.4269   7.5234   7.8527   7.9594   8.0110   8.0450   8.1243
     8.2513   8.4626   8.5588   8.7208   8.8189   8.9210   9.0141   9.1758
     9.2931   9.3971   9.4845   9.5828   9.7773   9.9469  10.0070  10.1296
    10.2379  10.3790  10.4094  10.5381  10.5819  10.7471  10.8965  10.9561
    14.9978  15.1166  15.2678  15.2795  15.3533  15.4694  15.5586  15.6008
    16.0468  16.1693  16.2332  16.2865  16.3446  16.4111  16.4500  16.4983
    16.5013  16.5238  16.5534  16.5898  16.6220  16.6600  16.6748  16.6985

     the Fermi energy is    12.2384 ev

!    total energy              =   -3090.21904039 Ry

     total all-electron energy =    -62928.618798 Ry
     estimated scf accuracy    <       0.00000066 Ry
     smearing contrib. (-TS)   =      -0.00235170 Ry
     internal energy E=F+TS    =   -3090.21668869 Ry

     The total energy is F=E-TS. E is the sum of the following terms:
     one-electron contribution =    -524.76588140 Ry
     hartree contribution      =     381.02326507 Ry
     xc contribution           =    -423.55742784 Ry
     ewald contribution        =   -1048.76562619 Ry
     Hubbard energy            =       0.73578533 Ry
     one-center paw contrib.   =   -1474.88680366 Ry

     total magnetization       =    13.00 Bohr mag/cell
     absolute magnetization    =    14.65 Bohr mag/cell

     convergence has been achieved in  19 iterations

     Writing output data file ./pwscf.save/

     General routines

     Parallel routines

     Hubbard U routines

   This run was terminated on:  16:33:17  18Oct2024

   JOB DONE.